DATASET = "thpack2";
INSTANCE = "059";

WIDTH = 233;
HEIGHT = 220;
LENGTH = 587;

NO_OF_SHAPES = 5;
size = [|
  76,52,46 |
  66,59,31 |
  62,55,44 |
  95,46,36 |
  63,59,35 |
|];

verticality = [|
  1,1,1 |
  0,1,1 |
  1,1,1 |
  0,1,1 |
  1,1,1 |
|];

box_count = [
  45,
  39,
  34,
  43,
  40,
];
